(declare-fun temp1022_2 () (_ BitVec 64))
(declare-fun temp1022_1 () (_ BitVec 64))
(declare-fun temp1022_3 () (_ BitVec 64))
(declare-fun var288560 () (_ BitVec 64))
(declare-fun temp1022_5 () (_ BitVec 64))
(declare-fun temp1022_4 () (_ BitVec 64))
(declare-fun temp1022_6 () (_ BitVec 64))
(declare-fun var852463 () (_ BitVec 64))
(declare-fun temp1022_7 () (_ BitVec 64))
(declare-fun temp1022_8 () (_ BitVec 64))
(declare-fun var1520241 () (_ BitVec 64))
(declare-fun var1651313 () (_ BitVec 64))
(declare-fun temp1022_9 () (_ BitVec 64))
(declare-fun var1712971 () (_ BitVec 64))
(declare-fun temp1022_10 () (_ BitVec 64))
(declare-fun var1979015 () (_ BitVec 64))
(declare-fun var1979024 () (_ BitVec 64))
(declare-fun var2101624 () (_ BitVec 64))
(declare-fun var2372209 () (_ BitVec 64))
(declare-fun var2634353 () (_ BitVec 64))
(declare-fun temp1022_11 () (_ BitVec 64))
(declare-fun var2765447 () (_ BitVec 64))
(declare-fun var2765456 () (_ BitVec 64))
(declare-fun var2888056 () (_ BitVec 64))
(declare-fun var3879537 () (_ BitVec 64))
(declare-fun temp1022_13 () (_ BitVec 64))
(declare-fun temp1022_12 () (_ BitVec 64))
(declare-fun var4338289 () (_ BitVec 64))
(declare-fun temp1022_14 () (_ BitVec 64))
(declare-fun var4403825 () (_ BitVec 64))
(assert (= temp1022_2 #x00000000000003cb))
(assert (= temp1022_1 temp1022_2))
(assert (= temp1022_3 #x0000000000000000))
(assert (= var288560 temp1022_3))
(assert (= temp1022_5 #x0000000000000002))
(assert (= temp1022_4 temp1022_5))
(assert (= temp1022_6 #x0000000000000000))
(assert (= var852463 temp1022_6))
(assert (= temp1022_7 #x0000000000000000))
(assert (= var852463 temp1022_7))
(assert (= temp1022_8 #x0000000000000000))
(assert (= var852463 temp1022_8))
(assert (= var1520241 var852463))
(assert (= var1651313 var852463))
(assert (= temp1022_9 #xffffffffffffffff))
(assert (= var1712971 temp1022_9))
(assert (= temp1022_10 #x0000000000000001))
(assert (= var1979015 temp1022_10))
(assert (= var1979024 var1979015))
(assert (= var2101624 var1979024))
(assert (= var2372209 var852463))
(assert (= var2634353 var852463))
(assert (= temp1022_11 #x0000000000000001))
(assert (= var2765447 temp1022_11))
(assert (= var2765456 var2765447))
(assert (= var2888056 var2765456))
(assert (= var3879537 var852463))
(assert (= temp1022_13 #x0000000000000002))
(assert (= temp1022_12 temp1022_13))
(assert (= var4338289 var852463))
(assert (= temp1022_14 #x0000000000000001))
(assert (= var4403825 temp1022_14))
(model-add temp1022_2 () (_ BitVec 64) #x00000000000003cb)
(model-add temp1022_1 () (_ BitVec 64) #x00000000000003cb)
(model-add temp1022_3 () (_ BitVec 64) #x0000000000000000)
(model-add var288560 () (_ BitVec 64) #x0000000000000000)
(model-add temp1022_5 () (_ BitVec 64) #x0000000000000002)
(model-add temp1022_4 () (_ BitVec 64) #x0000000000000002)
(model-add temp1022_6 () (_ BitVec 64) #x0000000000000000)
(model-add var852463 () (_ BitVec 64) #x0000000000000000)
(model-add temp1022_7 () (_ BitVec 64) #x0000000000000000)
(model-add temp1022_8 () (_ BitVec 64) #x0000000000000000)
(model-add var1520241 () (_ BitVec 64) #x0000000000000000)
(model-add var1651313 () (_ BitVec 64) #x0000000000000000)
(model-add temp1022_9 () (_ BitVec 64) #xffffffffffffffff)
(model-add var1712971 () (_ BitVec 64) #xffffffffffffffff)
(model-add temp1022_10 () (_ BitVec 64) #x0000000000000001)
(model-add var1979015 () (_ BitVec 64) #x0000000000000001)
(model-add var1979024 () (_ BitVec 64) #x0000000000000001)
(model-add var2101624 () (_ BitVec 64) #x0000000000000001)
(model-add var2372209 () (_ BitVec 64) #x0000000000000000)
(model-add var2634353 () (_ BitVec 64) #x0000000000000000)
(model-add temp1022_11 () (_ BitVec 64) #x0000000000000001)
(model-add var2765447 () (_ BitVec 64) #x0000000000000001)
(model-add var2765456 () (_ BitVec 64) #x0000000000000001)
(model-add var2888056 () (_ BitVec 64) #x0000000000000001)
(model-add var3879537 () (_ BitVec 64) #x0000000000000000)
(model-add temp1022_13 () (_ BitVec 64) #x0000000000000002)
(model-add temp1022_12 () (_ BitVec 64) #x0000000000000002)
(model-add var4338289 () (_ BitVec 64) #x0000000000000000)
(model-add temp1022_14 () (_ BitVec 64) #x0000000000000001)
(model-add var4403825 () (_ BitVec 64) #x0000000000000001)




